28
Properties=species:S:1:pos:R:3 Energy=-160.35904232 eV=T pbc="F F F"
Rh      12.54777282       7.75569026       7.97781998
Rh      11.98520854      10.13394365       7.96004820
Rh      10.28425881       7.54952100       8.83719355
Rh      10.99851171       7.02247199      11.15699091
Rh      12.88443030      12.48769639       8.38832042
Rh      13.25476513       7.94081811      10.32575129
Rh      13.76025656      10.38842543       9.67891172
Rh       9.32557748       9.76772018       8.47808093
Rh      10.43900858      12.11013633       8.00903878
Rh       7.94516409      11.71043256       7.73044276
Rh       8.92725979       8.78665428      10.87139724
Rh      12.84556746       7.54462182      12.84500469
Rh      10.66553341       8.90166107      12.80220987
Rh      11.27219030       9.58612828      10.30729841
Rh       7.90006121      11.06699741      10.23551253
Rh       8.89533434      10.77172432      12.57340714
Rh      13.18712086       9.97089882      12.06105209
Rh      10.27768508      11.84828005      10.54426068
Rh      12.71411952      12.35580528      10.91623019
Rh      11.22803652      14.10404122       9.61541999
Rh      12.47990935       9.60542039      14.46559854
Rh       8.64293588      13.50953255       9.30826798
Rh      10.06876231      10.39680567      14.88551358
Rh       8.29630242      13.18944876      11.84769102
Rh      11.44004245      11.53330420      13.04204536
Rh      10.92437471      13.84799911      12.16623418
Rh       9.49255896      12.79994760      14.06506457
Rh       9.30694310      15.30356495      10.89488510
28
Properties=species:S:1:pos:R:3 Energy=-159.9254955 eV=T pbc="F F F"
Rh       8.56499420       8.79743195      14.81255324
Rh       9.74684671       7.95615628      12.74120047
Rh       8.50085959      11.01450242      13.46006970
Rh       7.37348292       8.82410878      12.59170312
Rh      10.75489910       9.90276507      14.15645808
Rh       8.84322204       8.42350964      10.40533241
Rh       8.99390865      12.86629659      11.62696371
Rh       7.61332073      10.72045058      10.97506015
Rh       7.89588762       9.88204004       8.49777724
Rh      12.26535224       8.09502317      13.25417534
Rh      10.86612884      12.22096400      13.18215846
Rh      10.05471550      10.40104645      11.50517637
Rh       9.25908283      11.82252983       9.33141763
Rh      10.85410720      14.54281410      12.25252192
Rh      13.95400116       8.59838302      11.25727798
Rh       9.57931032      11.20685336       6.91407260
Rh      11.46718603       8.31397313      10.82391774
Rh      12.56568273      10.44008872      12.30970851
Rh      11.85318876      11.30088756       9.85399309
Rh      10.94109571      13.67697112       9.88848293
Rh      12.74027041      12.94655281      11.56621452
Rh       9.51501217      13.73400676       7.75921991
Rh      14.30430323      11.08721184      10.40733687
Rh      10.40473241       9.44475239       8.66128203
Rh      11.97859677      10.13682508       6.78538653
Rh      13.03903901       9.26503539       8.97498331
Rh      11.69558828      12.51316432       7.62329775
Rh      13.94815317      11.43862394       7.95522676
28
Properties=species:S:1:pos:R:3 Energy=-159.89918743 eV=T pbc="F F F"
Rh      11.02377227      13.47091192      13.42682836
Rh       9.52159398      11.25435659      13.41780999
Rh      13.61286389      13.29709510      13.35618447
Rh      10.86802532       8.94131013      13.35586760
Rh      15.00272214      11.11665913      13.18404197
Rh      13.45171180       9.04059493      13.29881603
Rh      12.41517167      13.93586232      11.15690090
Rh      10.37317844      12.47250591      11.25353398
Rh      14.48658066      12.49382299      11.02746802
Rh      10.30747323      10.07162159      11.22831599
Rh      14.40675735       9.83737523      11.00026340
Rh      12.25704150       8.50176151      11.07571684
Rh      10.81770178      13.50771402       9.04450443
Rh      13.39010274      13.37939503       8.85298301
Rh       9.35076120      11.32763318       9.14295760
Rh      10.69756960       9.08465264       8.97641129
Rh      13.28537921       9.04799761       8.80324453
Rh      11.78228738      11.14275533      14.53064201
Rh      12.55824150      11.21647675      12.28350047
Rh      12.56444869      11.22085290       9.75466047
Rh      11.37581759      11.30857739       7.67656204
Rh      10.12235420      15.02521641      11.29417179
Rh       8.34641811      13.58100121      10.00112984
Rh       8.47618002      13.55706425      12.67156109
Rh       7.93327683      11.33509941      11.33971770
Rh       8.32637804       9.04478652      12.59739898
Rh       8.21718464       9.11957834       9.93822196
Rh       9.89839737       7.53671283      11.17997639
28
Properties=species:S:1:pos:R:3 Energy=-159.8592533 eV=T pbc="F F F"
Rh       7.09561155      11.65137375       8.63411337
Rh       7.27387701      12.07675365      11.08069521
Rh       9.23889631      12.76459565       9.30449875
Rh      11.70766476      12.15951041       9.55407596
Rh       7.63126429       9.63899805      10.04550388
Rh       7.62997885      12.47109879      13.57553122
Rh      10.84198493      12.04114623       7.23453402
Rh       9.18798763      10.32903217       8.08530768
Rh      10.89102366      14.35415124      10.45275894
Rh       7.71306666       7.83309820      11.86705627
Rh       9.66211848      10.88512417      11.06109530
Rh       9.38994753      13.27702737      12.03944198
Rh      11.24232132       9.62866061       9.43900168
Rh       7.85202584      10.14376660      12.75237690
Rh       9.83661169       7.80111774      10.55000209
Rh      11.27147522       9.53006041       6.86564285
Rh       9.71048327       7.79462819       7.93943455
Rh      11.82406831      12.44639668      12.08459060
Rh       7.69702967       7.27640207       9.28796331
Rh      13.20669221      10.69383854       8.18434103
Rh      10.04137174       8.79940108      12.85850483
Rh      10.04981476      11.28445189      13.60128060
Rh      13.82050588      11.37534020      10.71129307
Rh      12.08465974       9.90744468      11.83745872
Rh      11.82561958       7.02510401       9.17320643
Rh      13.32441304       8.19949518       7.53610999
Rh      12.00506697       7.38536283      11.78008241
Rh      13.53279841       8.81499893      10.05247767
28
Properties=species:S:1:pos:R:3 Energy=-159.75045053 eV=T pbc="F F F"
Rh      12.27565079      10.51305430      12.62503300
Rh      11.98077715      11.46006507      14.88063320
Rh      12.07287315       8.42416584      13.96241325
Rh      10.00207558       9.90911333      13.67319679
Rh      10.21889309      12.52646708      13.41924633
Rh      12.57885141      13.60127390      13.49171996
Rh      14.29486003      11.69282402      13.55818784
Rh      12.16999375       8.36915428      11.31911499
Rh      10.11913784       7.57101847      10.06022005
Rh      10.04502132      10.84632865      11.32022168
Rh       7.96943503      11.38194594       9.98108435
Rh      11.68066865      12.81318594      11.31851396
Rh      10.54187220      14.99933739      10.00611749
Rh      14.14591448      12.87948870      11.32137074
Rh      14.46116641      10.28800698      11.31182245
Rh      12.27756578      10.51422345      10.00453419
Rh      11.98075117      11.46982093       7.75212302
Rh      10.12388452       7.56821032      12.58341992
Rh       7.96676898      11.39191561      12.65555524
Rh       8.45872506       9.04586209      11.32890027
Rh      10.53708796      14.99970606      12.63224511
Rh       9.01779395      13.40343528      11.31555490
Rh      12.84381348      15.10924995      11.32188274
Rh      10.00328568       9.90625781       8.96576404
Rh      12.07000391       8.41714693       8.67820378
Rh      10.22149887      12.52170096       9.22011641
Rh      12.57816248      13.60482647       9.14794920
Rh      14.29646287      11.70520988       9.07785074
28
Properties=species:S:1:pos:R:3 Energy=-159.74985166 eV=T pbc="F F F"
Rh      10.33900311       7.23116581       9.05962715
Rh      12.11122418      11.44292975       7.59819566
Rh      10.55921355      13.62733995      11.18310637
Rh      12.80160502       7.64352802       9.97730254
Rh       9.42635312      10.90627594      14.41927225
Rh       8.60987051       9.18691095       8.91184992
Rh      12.37249395      11.92672616      10.21565621
Rh      12.35271357       8.30223620       7.49360088
Rh       9.13409243      13.13126848      13.16889289
Rh       8.18641071      12.53886768      10.88686811
Rh       8.24009922       7.50786552      10.74775994
Rh      10.03923839      12.15339081       9.16405358
Rh       8.68484517       9.01589279      12.84262553
Rh      13.73516955       9.92274957       9.05279364
Rh       7.33527643      11.21255992      12.91633035
Rh      11.54203825       9.89373943       5.66746614
Rh      12.70223630       9.70489066      11.53765933
Rh      11.19534920       9.71069559       9.27893001
Rh      11.12050874      11.52675072      12.48383216
Rh       9.53668324      10.47811458      11.04247593
Rh      11.14278045       9.26808820      13.67234343
Rh      13.99442958      10.07580868       6.52925600
Rh       9.60898444      10.77802037       7.09445639
Rh      10.61870117       8.17745156      11.41330641
Rh       7.04552420       9.90227286      10.83840994
Rh       7.53954987      12.47389500      14.95164939
Rh       7.62478787      11.48622429       8.59563783
Rh       9.90112475       8.27464748       6.75694897
28
Properties=species:S:1:pos:R:3 Energy=-159.68060912 eV=T pbc="F F F"
Rh      10.68044531      12.57739539       8.40305275
Rh      11.50940152      10.41855627       7.18453491
Rh       8.19364382      12.63780753       9.01737462
Rh      13.38886183       9.18176720       8.62025560
Rh       9.71009765      14.71674394       9.32027103
Rh      13.24210644      11.81251139       8.76271667
Rh      12.37114647      14.29704591       9.10499703
Rh      10.65365855      12.43001342      10.99647989
Rh       9.20757865      10.34843929       8.46605176
Rh      11.36394990      10.44935975       9.76385563
Rh       8.55035691      13.59613641      11.38467340
Rh      12.08966958      11.08587396      12.83156733
Rh      11.27471186      14.91803703      11.28481561
Rh      11.38669393      13.42786850      13.32148003
Rh      13.60481406      10.35179990      10.92083204
Rh      13.07240029      12.90895227      11.12800177
Rh      13.01635776       8.80564212      13.07510765
Rh       9.51281023      11.70479027      13.20147330
Rh      12.16717604       8.16789430      10.71307182
Rh       8.26558672      10.98295255      10.92070714
Rh      10.15026598       9.48953779      11.76145409
Rh      10.69231871       9.51754337      14.24835200
Rh      10.79665240       8.25485143       8.48077261
Rh      10.93655008       7.35120189      12.75827583
Rh       8.00826700       9.68087728      13.13703369
Rh      10.31590181       6.46858927      10.35417547
Rh       8.77209449       8.39752293       9.98903144
Rh       8.46585127       7.41965792      12.24895417
28
Properties=species:S:1:pos:R:3 Energy=-159.62729689 eV=T pbc="F F F"
Rh      10.06727894      13.19444417      13.67971907
Rh       8.85879824      10.95813026      13.79010706
Rh       9.15119686      12.18250125      11.54146212
Rh      11.27935201      11.18195365      12.75489582
Rh      11.34728182      13.47782071      11.52533725
Rh       7.62750295       8.81781208      13.93360109
Rh       7.48699918      10.25145680      11.71456405
Rh       8.16955853      11.27378313       9.38239993
Rh      10.24415868      12.83672652       9.30883029
Rh      12.19253136      11.33107666      10.32396256
Rh      12.65647592      13.76788214       9.33461304
Rh      10.15916452       8.87203515      13.14056779
Rh       9.90650006       9.74009641      10.71677123
Rh       8.27691532       7.70693027      11.85011269
Rh       7.62518478       8.72685785       9.61573413
Rh       9.12465458      12.12646685       7.14034975
Rh      12.36808404       9.09967694      11.84147796
Rh      11.82352608      12.57717411       7.26421134
Rh      14.52613493      12.23317913       9.56584431
Rh       8.50466769       6.29644393       9.83664763
Rh       8.42585194       9.70983221       7.32904404
Rh      10.68972272      10.43340788       8.20210556
Rh      10.70200742       7.29289206      10.97580182
Rh      13.25897546      10.70102758       8.06780838
Rh      14.32116643       9.83977323      10.32148175
Rh       7.71936469       7.31708003       7.51898429
Rh       9.92262468       7.95560441       8.57712654
Rh      12.18741347       8.72102789       9.36953181
28
Properties=species:S:1:pos:R:3 Energy=-159.5804852 eV=T pbc="F F F"
Rh      11.94086626      11.43316645      13.51654618
Rh      13.50505701       9.12605219      13.57404161
Rh       9.64968689      10.14204141      13.83526451
Rh       9.66390525      12.82093787      13.76755522
Rh      13.51843175      13.70119482      13.60830559
Rh      14.43128026      11.42186052      13.44246560
Rh      11.43355693       9.26183572      12.20473546
Rh      10.75571388       7.70939971      10.20650777
Rh      10.04511597      11.41721631      11.69414618
Rh       8.06032149      11.37448324      10.12854404
Rh      11.53457885      13.56520877      12.12559059
Rh      10.68258088      15.11518388      10.26488460
Rh      14.15656870      12.82150667      11.31938337
Rh      14.19452598      10.01630091      11.31991820
Rh      12.26788322      11.37840353      10.59712185
Rh      11.94954652      11.41920420       7.97288937
Rh      10.07936118       7.25982872      12.57304252
Rh      13.10158475       7.68056927      11.30377203
Rh       7.67274193      11.42956920      12.68536700
Rh       8.83717901       9.16457922      11.44157814
Rh       9.96170546      15.33903144      12.75253472
Rh       8.74447346      13.59614230      11.38848495
Rh      13.12284401      15.18801982      11.20784159
Rh      10.26331598      10.11752946       9.44206708
Rh      12.68620117       9.22851623       9.26275724
Rh      10.23016575      12.70161106       9.45471108
Rh      12.65021501      13.57588629       9.26819559
Rh      14.29349968      11.42762802       9.07465516
28
Properties=species:S:1:pos:R:3 Energy=-159.49444545 eV=T pbc="F F F"
Rh       5.34440450       9.26417094      10.39697811
Rh       9.18267011      10.07782051       7.49354359
Rh      13.19672843       9.88758954      10.77917054
Rh      10.47290556      10.43062645      14.32780949
Rh       6.49553146      11.10844168      11.40407259
Rh      11.18404594      10.24839344       9.31608348
Rh      11.38363332       8.57905608       7.55210230
Rh      13.44280652      11.12938705       8.57226724
Rh       8.33403410      11.11623203      13.06390854
Rh       8.33958243      12.98101540      11.29439520
Rh       8.92811749       8.58271351      13.58000770
Rh      10.19062523      12.83727444      13.12528728
Rh      12.06662854      13.24986809       8.54125067
Rh       9.94429141       9.96426892      11.57221153
Rh      11.82028936       8.65265666      12.64030857
Rh      10.74959783      12.43744838      10.61299754
Rh       8.28476966      10.93100643       9.74827678
Rh       7.65170787       8.73725742      11.31965409
Rh       9.39607085       8.30417483       9.31934655
Rh      11.81708966       7.86320641      10.07430367
Rh      13.77483511       8.55158381       8.56697396
Rh       9.86652502       7.27488281      11.61794662
Rh       9.58699605      12.55783297       8.31050224
Rh      13.31602879      12.48670141      10.70531373
Rh      12.06913959      11.21397164      12.56536059
Rh       7.08479760       9.00886621       8.72203452
Rh      13.32695863       9.82501228       6.45041156
Rh      11.36917379      11.31852552       6.94746616
28
Properties=species:S:1:pos:R:3 Energy=-159.47474517 eV=T pbc="F F F"
Rh      12.39739373      10.71950707      12.58157601
Rh      11.79930440      11.38313594      14.89424269
Rh      12.13648883       8.65293912      13.95801188
Rh       9.99436991       9.91853828      13.61351613
Rh      10.04533810      12.57302010      13.46186942
Rh      12.57497911      13.46587529      13.50342472
Rh      14.30178251      11.66201995      13.81817536
Rh      12.23543806       8.52912324      11.32361561
Rh      10.36403461       7.52426301      10.02701518
Rh      10.02042733      11.01198358      11.37302348
Rh       7.92135274      11.25410516       9.98691067
Rh      11.42577133      13.02468472      11.34277182
Rh      10.67789129      15.00565860       9.97510132
Rh      13.96386657      12.59519699      11.33019035
Rh      14.43487739      10.08713127      11.23665687
Rh      12.26316690      10.75364447      10.07273750
Rh      11.86155804      11.38349552       7.69631080
Rh      10.32100761       7.52337124      12.56101648
Rh       7.89023202      11.19435199      12.67840210
Rh       8.67266731       8.99659992      11.28499359
Rh      10.65320401      15.03854926      12.64969835
Rh       8.83175528      13.43164892      11.31208252
Rh      12.99823426      15.01770088      11.32673980
Rh       9.99143884       9.93935325       9.05622443
Rh      12.18090270       8.72142472       8.67337639
Rh      10.07777313      12.54505731       9.20053149
Rh      12.61414938      13.42022221       9.16900702
Rh      14.28359022      11.56039360       8.82577363
28
Properties=species:S:1:pos:R:3 Energy=-160.35314883 eV=T pbc="F F F"
Rh      10.10235780      10.10402592       6.50958157
Rh      12.13803557      10.09238518       7.92503980
Rh      10.92022362      12.41806449       7.66622452
Rh      13.06292469      12.19344086       9.17799673
Rh      14.35782965       9.91110564       9.15951300
Rh      10.26117189       8.30167814       8.50125593
Rh       8.15943096      11.74697075       7.04767531
Rh      12.69361884       7.96612644       9.37666074
Rh       7.96855885       9.27926864       7.75188330
Rh      14.40352509      10.56524657      11.62083510
Rh       9.69849157      10.71570371       9.04523102
Rh       8.79075933      13.20256418       8.98178959
Rh      10.80459924      12.67992807      10.39715008
Rh      12.05994556      10.24672955      10.51495287
Rh      12.83425129      12.59852651      11.85505319
Rh      13.20117571       8.33115664      11.86799048
Rh       7.24768270      11.17593784       9.51016356
Rh       8.34494923      12.62376617      11.41440143
Rh      12.21568741      10.47054655      13.09526118
Rh      10.68608129       8.08713557      11.07043456
Rh       9.73795337      10.45210986      11.58904518
Rh      10.43679018      12.49052417      12.96870673
Rh       8.29970198       8.81445261      10.22057246
Rh      11.25285833       8.16037672      13.56679854
Rh       7.21038310      10.40093763      11.97967858
Rh       9.87183436      10.24234958      14.15184431
Rh       8.05081493      11.91280559      13.86121018
Rh       8.75691696       8.38468993      12.74160356
28
Properties=species:S:1:pos:R:3 Energy=-159.45229015 eV=T pbc="F F F"
Rh      14.66841346      13.28930856      15.18180079
Rh      14.54468181      13.37903044      17.70293561
Rh      15.29960722      11.07962649      16.23086715
Rh      12.78700102      11.97885414      16.27175776
Rh      12.77980820      14.65789231      16.30778619
Rh      15.33664315      15.48141746      16.27206309
Rh      16.95890162      13.36789675      16.23526534
Rh      13.95201377      11.08895835      14.02326508
Rh      12.41207315      13.30794176      13.99426695
Rh      13.94906840      15.42437797      13.99332930
Rh      16.54112984      14.64536204      14.02317183
Rh      16.49291512      11.96286713      14.02369565
Rh      14.64796702      13.30182564      12.63354581
Rh      10.57880460      11.98401071      15.13556396
Rh      10.54660293      14.66915782      15.01789700
Rh      12.07559518      16.77414152      15.01935681
Rh      14.65175403      17.57503677      15.12969158
Rh      11.68415539      11.20676544      12.79992584
Rh      10.11819599      13.33688545      12.78117628
Rh      11.63248966      15.48868725      12.74439551
Rh      13.21354144      17.59352071      12.78180637
Rh      15.72606982      16.76307953      12.79777388
Rh      13.90629422      11.19783434      11.44819490
Rh      12.34157235      13.32926953      11.36062385
Rh      13.90767550      15.48177451      11.36065631
Rh      16.42409941      14.65223304      11.44683557
Rh      16.49634554      11.96301253      11.54113364
Rh      14.62604106      13.31869269      10.04067886
28
Properties=species:S:1:pos:R:3 Energy=-159.33360761 eV=T pbc="F F F"
Rh      12.36263725      10.02972978      12.87196587
Rh      11.46911802      12.24181218       9.32218022
Rh      10.10956615       7.64990520       8.75843062
Rh      10.76080209      14.21460277      10.82197240
Rh      12.88902476       7.93340142       9.36288519
Rh       8.54590721       8.38443964      10.86113682
Rh      11.59803103       5.70701865       8.90502157
Rh      11.38869129      12.00728851      11.83035180
Rh      13.02943466      10.48613468      10.40488386
Rh      12.75926864       6.11051812      11.07782836
Rh      13.96663097       8.33437402      11.69194371
Rh       7.28552178      10.60031027      11.59843160
Rh       9.70583631      10.14316225      12.48630479
Rh       9.40965290      10.78623382       9.83273825
Rh       9.30049700       7.70116314      13.18898919
Rh       8.96626277       9.40325473       7.59981722
Rh      11.48140154       9.89789697       8.33153624
Rh       7.13787705      11.17160821       7.15858250
Rh       8.30825751      14.45557041       9.90638468
Rh      10.17881459      14.19434276       8.31660825
Rh      11.71193190       7.62795399      12.81094850
Rh       7.04808209       9.61803061       9.23224610
Rh      10.18166298       6.41916567      11.02549752
Rh       7.31193854      12.16352203       9.52897942
Rh       8.93769606      12.58908902      11.58197954
Rh       7.80326140      13.70080175       7.52271442
Rh       9.58230200      11.83580263       7.55176371
Rh      11.09327498       8.91625023      10.74126110
28
Properties=species:S:1:pos:R:3 Energy=-159.32902628 eV=T pbc="F F F"
Rh       9.44927294      14.24476166      13.03245379
Rh      11.39048819      12.71148933      13.66108557
Rh      13.35274129      11.23928550      14.27566879
Rh       9.24827187      11.68411753      12.68977960
Rh      11.21161570      10.17317181      13.33144710
Rh      13.93662798       7.48814664      11.10854037
Rh       8.32698239      13.42016646      10.96328924
Rh       9.11307461       9.18423356      12.15597960
Rh      11.49784806       8.17543174      11.62939932
Rh      10.89391319      13.20748135      11.17995781
Rh       7.93525240      10.90952126      10.60993214
Rh      12.85744923      11.68724326      11.80099857
Rh       9.35012964       6.75189463      11.65004295
Rh      13.55667947       9.36122078      12.63219905
Rh       9.68462657      12.37535759       9.02233988
Rh       7.56501629       8.40432431      10.20869344
Rh      10.64652893      10.49141551      10.58645685
Rh       7.13017853      12.65704966       8.88099619
Rh      12.25530798      12.06308859       9.30608702
Rh       6.36243932      10.24853146       8.67828297
Rh       9.92155431       7.83899528       9.52093201
Rh      13.24276796       9.73212537      10.07184358
Rh      12.37389040       7.40117834       9.18239058
Rh       8.47673343      11.60663014       6.93168627
Rh       8.80732354       9.74590030       8.43171450
Rh      13.49475168      10.57785487       7.68200712
Rh      11.32306316       9.47022972       8.20404429
Rh      11.08170863      11.63539101       7.05798907
28
Properties=species:S:1:pos:R:3 Energy=-159.19273242 eV=T pbc="F F F"
Rh      12.51685258      10.79320415       8.77835173
Rh      14.13943265       9.72347839      10.57323242
Rh      12.15620431       8.40314594       9.57569154
Rh      10.16067249      12.15435528       8.10212988
Rh      10.15885964       9.60811219       8.63275540
Rh      12.11095140      13.47940556       9.08128714
Rh      13.85812322      12.36404573      10.48885457
Rh      12.52849488       8.35520242      12.12443410
Rh      15.59035116      11.29851934      12.08511050
Rh      14.74975953       9.13610096      13.19484439
Rh      11.36590775      11.59837721      10.73533047
Rh      12.91981092      10.84073922      12.48000226
Rh       7.91466748      10.56019690       7.96036403
Rh      11.87550323      13.83938706      11.70925079
Rh       9.77258778      13.80352903      10.18430231
Rh       8.96180618      11.31554633      10.18658127
Rh      12.53074534       9.26662145      14.57012340
Rh      14.27236791      11.24490726      14.62196560
Rh      10.35118854       9.18767214      11.21421965
Rh      14.07035659      13.17592604      12.93482652
Rh      10.53806310      10.32324687      13.53831015
Rh       9.75025779      12.50588044      12.52182446
Rh       7.64492609      13.03279887       8.76691755
Rh       8.00108714       8.95097324      10.03627492
Rh      11.84232947      12.57499425      13.99877072
Rh       6.40303651      11.07872647      10.12364411
Rh       7.49016934      13.02936052      11.36776391
Rh       8.28051743      10.31057718      12.36786667
28
Properties=species:S:1:pos:R:3 Energy=-159.15775486 eV=T pbc="F F F"
Rh       9.40513464      13.98740347      10.04149503
Rh      11.05911423      14.71753813       8.17881564
Rh       8.10739868      11.72947792       9.47526987
Rh      10.38338204      12.27992624       8.43762945
Rh      10.65387429      14.00465867      12.39807726
Rh       9.31550573      11.97164557      11.66810369
Rh       9.81386470       9.86144601       8.82774422
Rh      11.95737229      13.55232276      10.23308021
Rh      11.30832646      11.13710506      10.55535648
Rh      11.96571766      13.98766549      14.59497636
Rh       8.40258272       9.64125967      10.99109261
Rh      10.20432338      12.13026543      14.12310232
Rh      12.84401544      12.80266152       7.94374604
Rh      13.16027078      13.38666067      12.42064461
Rh       9.21321439       7.52471092       9.79861834
Rh      11.71918975      10.48881847       7.22159177
Rh      11.51772122      12.23453516      16.37196172
Rh      14.30270672      12.66785805      10.14099497
Rh      13.25932896      10.49454526       9.18789603
Rh      11.88985634       8.37640043       8.72624318
Rh       9.08442814       7.57619268      12.31192807
Rh      11.01965104       9.96229971      15.31945615
Rh      11.04234813       8.65408081      11.06819362
Rh      13.44374680      10.94551016      11.80397109
Rh      12.60988083      11.54178259      14.14116570
Rh       9.80635819       9.84328724      13.12528556
Rh      12.27609540       9.17393164      13.20665331
Rh      13.47756645       8.56898566      10.92988211
28
Properties=species:S:1:pos:R:3 Energy=-159.13589559 eV=T pbc="F F F"
Rh      13.85446737      13.31199958       8.59384980
Rh      10.57313104       9.96224012       7.08365387
Rh      10.09784875       8.15585710      10.99445391
Rh       8.68038261       8.20574290       7.81110546
Rh      12.42332236       7.16969557      10.48010108
Rh       8.06104042       8.14931470      12.58225490
Rh       7.61358894      12.33228205       9.85483446
Rh       9.61481759       6.14493959       9.42737694
Rh      12.39183033      11.45363090       7.84557620
Rh      11.04457326       7.85294854       8.46704421
Rh      13.96032005      11.25501675       9.90201805
Rh      11.10662136      10.17629554       9.66653959
Rh       9.78994579      11.86089665      11.10547477
Rh       6.23465212       9.29911284       8.89024219
Rh       6.03345123      11.69243551       8.03652861
Rh       8.47199172       9.88370567       9.71648744
Rh       7.54935385      10.51920384      11.88072325
Rh       7.68260577       7.44917803      10.18738473
Rh       9.90971465       9.99164582      12.79540939
Rh       8.11647109      10.63111939       7.27633728
Rh      11.99506768       8.39396179      12.66419375
Rh      11.86309169      12.78616786       9.98385923
Rh       5.44252149      11.11314021      10.47013327
Rh      14.01726994       9.10598263      11.26244540
Rh      12.14556017      10.76467611      11.79429555
Rh      13.19262059       9.05045572       8.87310811
Rh       5.84782373       8.68471916      11.38341870
Rh       9.79796136      12.11568235       8.48319680
28
Properties=species:S:1:pos:R:3 Energy=-158.97810261 eV=T pbc="F F F"
Rh      11.94329765      11.38372454      13.48676962
Rh      13.02147072       9.02151975      13.62457522
Rh       9.83722918      10.00837793      13.78516194
Rh       9.85656035      12.79499597      13.79314514
Rh      13.04793578      13.76127458      13.63101695
Rh      14.37592128      11.41667076      13.59049914
Rh      11.45449541       9.40819453      11.75520824
Rh      10.70686984       7.59087102      10.18298801
Rh       9.98226068      11.41221494      11.64377181
Rh       7.97952406      11.41785641      10.17569644
Rh      11.47231424      13.40198859      11.77652934
Rh      10.69858117      15.23320428      10.22352063
Rh      14.04677721      12.76780792      11.45268852
Rh      14.03501531      10.04651549      11.46761703
Rh      12.22333972      11.41387722      10.41366118
Rh      11.98171230      11.42699173       7.96754743
Rh      10.56762708       7.39661673      12.76952338
Rh      13.02766117       7.53105769      11.32285780
Rh       7.75147763      11.40141034      12.75379417
Rh       8.84092558       9.12138160      11.44880737
Rh      10.56585500      15.40735833      12.80081818
Rh       8.85106772      13.69719550      11.46364867
Rh      13.02858647      15.29140921      11.34611282
Rh      10.20259704      10.09203186       9.37981220
Rh      12.67930851       9.15774116       9.29126371
Rh      10.19729497      12.73582493       9.39013919
Rh      12.66934243      13.68403721       9.30362969
Rh      14.38785871      11.41075702       9.19210339
28
Properties=species:S:1:pos:R:3 Energy=-158.80773329 eV=T pbc="F F F"
Rh      11.23462497      15.28299922      11.07804946
Rh      13.23184604      13.81079280      10.65156688
Rh      12.15070459      14.94453953       8.70602703
Rh      11.87292959      13.34595929      12.77938669
Rh       9.86064490      14.51419966       7.73105088
Rh       9.37941438      14.26687681      12.55753653
Rh       9.10084754      14.38777935      10.05980538
Rh      10.80987751      12.52520023      10.56912825
Rh      13.74132121      12.17117420       8.84547634
Rh      13.13504314      11.40142519      11.22094031
Rh      11.41949587      12.57997089       8.12384087
Rh       9.83964338      11.85819550      13.13276914
Rh       8.88592690      12.27942609       8.56783823
Rh       8.29390598      12.15018584      11.12962700
Rh      11.94338412      10.33017254       9.20111627
Rh       9.44605638      10.21398268       9.71563670
Rh      12.19378818      10.99232561      13.75598598
Rh       8.52337508       9.85252653      12.22992777
Rh      13.54067204       9.24011546      12.38007877
Rh      10.57904482       8.19619274       8.69254575
Rh      11.08896839       9.73289373      11.77034765
Rh      10.04630497       9.63429071      14.29674497
Rh      12.44226488       8.09788848      10.32312527
Rh      12.34887034       8.44343311      14.43266692
Rh       9.13384153       7.92605982      10.74811067
Rh      12.93696249       6.77494537      12.42702332
Rh      10.91421807       6.20264342      10.71335174
Rh      10.60064408       7.53842657      12.85491659
28
Properties=species:S:1:pos:R:3 Energy=-158.79950079 eV=T pbc="F F F"
Rh      13.31855662       8.71190613       8.35654902
Rh      12.89077296       8.69514590      10.79828950
Rh      10.95483943       7.78182076       9.41333733
Rh       9.35337889       8.95295724      14.37603919
Rh      12.56204196       8.33084105      13.17210781
Rh      14.51250125      10.43233864       9.96745562
Rh      10.28791986       8.20294030      11.98603944
Rh       8.80981418       8.97986696      10.17369609
Rh      11.07667832       9.89556379       8.10131327
Rh      13.12408643      11.25323827       8.01497369
Rh       8.64969694       9.39955235       7.72710355
Rh      13.34249528      10.82521878      12.35000765
Rh      11.04296836      10.34866563      10.60220545
Rh      10.76057509       7.01464335      14.15092457
Rh      11.59642809      11.73248686       6.18076295
Rh       7.86150879       9.33764306      12.43093814
Rh       9.62056999      11.84249452       7.68928590
Rh      11.05711220      10.32279878      13.33246486
Rh       7.94707016      11.11743735       9.49290635
Rh       7.29776591      13.08821798      12.98535723
Rh       6.62073322      11.27813980      11.49335048
Rh      11.40181212      12.65625856      12.37080655
Rh      11.60756652      13.36143990       8.22234027
Rh       9.08737551      11.51372934      12.24802030
Rh      12.81982422      12.26287799      10.30726274
Rh       9.98543365      12.55703349      10.00829637
Rh      11.54602209      14.50384001      10.59546741
Rh       9.27996062      14.01641188      11.86820693
28
Properties=species:S:1:pos:R:3 Energy=-158.65267257 eV=T pbc="F F F"
Rh      12.70446720       8.44207976       7.64858973
Rh      10.99064243       8.08168608       9.36060516
Rh       9.10048825       7.74694279      10.99843537
Rh      12.88162396      12.36301169      13.43240062
Rh      14.67303479      11.54804625      10.71798642
Rh       9.82358289      13.59496985      11.03402652
Rh      14.16796247      13.65587047      11.84103493
Rh      13.50858271      10.33132150      12.42943535
Rh       8.21602453      10.75621581       7.22923913
Rh       7.54361411       9.27242138      12.49653573
Rh      11.50060869      11.44833182       8.67370245
Rh       8.66142753      10.98804557      14.00911548
Rh      10.18558751      12.23949125       6.71933349
Rh      11.59055505       7.58199711      11.85072867
Rh      11.82873253       9.90720585      10.72402423
Rh       8.50782641      11.28442973      11.38956550
Rh      11.04570860      13.87870793       8.80840571
Rh      12.17282310      12.58623252      10.81521296
Rh      10.08661000       9.38864948      12.62853321
Rh      10.57931713       9.65512787       7.34010949
Rh       6.75517442       8.69984688      10.27458024
Rh       6.82893742      11.05895157       9.42501256
Rh      12.13868273       9.03612961      13.94490361
Rh      10.54014547      11.95019840      12.72129117
Rh      11.29812691      11.09656644      14.91710724
Rh       8.94001911       9.64050707       9.36570004
Rh      13.55797561      10.25113444       8.99057621
Rh       9.00693486      12.35109730       9.04902521
28
Properties=species:S:1:pos:R:3 Energy=-160.33744402 eV=T pbc="F F F"
Rh       7.89172415      11.91940417      13.79721484
Rh       9.80139911      10.18439470      13.97780403
Rh      11.68811142       8.50416149      14.22314039
Rh      10.13223919       8.32341139      12.18821809
Rh       8.26463136      10.16208128      11.94786682
Rh       6.41518295      11.93426404      11.64579336
Rh       8.71442467       8.43225321      10.05163144
Rh       6.88477841      10.23825854       9.77944933
Rh       7.29566876       8.54649130       7.91073367
Rh       8.10134296      13.87701386      12.06812186
Rh      12.71025958       8.07027900      11.93671228
Rh      10.02069886      12.20898096      12.39833588
Rh      11.94667214      10.45166812      12.57083929
Rh      11.27110522       7.97584550       9.83844276
Rh      13.81663519       7.61387575       9.64300215
Rh      10.21618049      14.02937341      10.58505903
Rh       8.48723986      12.21709351      10.13265910
Rh       8.93763569      10.49931808       8.22738389
Rh       9.80859227       8.11576119       7.72956572
Rh      10.43149620      10.42872473      10.42930673
Rh      13.07367640       9.99062663      10.25833497
Rh      12.32367515       7.64641389       7.50503372
Rh      11.49509564      10.03367710       8.02432326
Rh      12.15321165      12.35404364      10.89382343
Rh      12.30983230      14.24113767       9.15699126
Rh      14.03153330       9.57594981       7.91673731
Rh      10.58130667      12.44520883       8.55179784
Rh      13.13046207      11.91509985       8.54648919
28
Properties=species:S:1:pos:R:3 Energy=-158.59882734 eV=T pbc="F F F"
Rh       5.78812285       9.48183341      13.71269979
Rh       8.57601970       9.41631359      12.15206977
Rh      10.39165260      11.00325173      13.14052425
Rh       9.87034121       9.68355544       9.79020108
Rh      10.58625250      11.08454138       6.02542606
Rh       7.91746827      11.95860808      12.29293234
Rh      12.26609438      12.66496811       7.29061168
Rh       7.39788546       8.86136441       9.68220601
Rh      12.10325447      10.61382879       8.87328523
Rh      10.05630879      11.99115239       8.33632952
Rh      10.99400431       8.80954913      11.84990142
Rh      13.38827586       8.61891252      10.83613636
Rh      11.72897118      13.12945804      12.36020082
Rh       8.59144698       9.99300081       7.59347408
Rh       9.11944610       7.53179595       8.30279421
Rh      11.00434739       8.93639460       7.29443182
Rh       9.97194289      12.14688589      10.91856874
Rh      12.98082070      10.27845684       6.48684366
Rh       6.64779942       7.88987538      11.99346500
Rh      13.47454177       8.55429307       8.31606363
Rh      11.39222667       7.62944681       9.59393085
Rh      12.43397836      10.90108792      11.48259897
Rh       7.90106003      10.44168573      14.27450026
Rh       7.89275675      11.39769007       9.70520023
Rh       9.12129585       7.24757124      10.88165403
Rh      14.34367045      10.74605200       9.84980169
Rh       6.16057807      10.30977951      11.38964619
Rh      12.15573633      12.93494653       9.83080163
28
Properties=species:S:1:pos:R:3 Energy=-158.48355132 eV=T pbc="F F F"
Rh       8.25015602      10.88644700      13.26011649
Rh       7.42685080       7.50138525      10.95140818
Rh      12.32234176      11.46038678       7.80210663
Rh      12.22521987      11.82901539      12.20365954
Rh      12.95284475       9.31195618      11.55208124
Rh      10.63603584       9.84850557      12.61459884
Rh      10.98352381      12.98264428       9.51427078
Rh       8.10605400      10.98462807       8.66992221
Rh       8.63794761       9.88923059      10.86155523
Rh       8.41913529       8.37859935       8.79441100
Rh      12.36961465       7.18079438      10.49122534
Rh      10.05608032       7.77838749      10.92694130
Rh      10.30918584       9.85773021       7.85713504
Rh      12.94697577      13.70034962      10.64247300
Rh      14.64753738      10.98900282      12.28865632
Rh      12.66797797       9.08794225       8.86058111
Rh       9.87087167      12.30720013       7.40359148
Rh       6.30776625       9.56151387       9.74355409
Rh       9.70267847      12.16367855      11.58917365
Rh       6.29225635       9.52133399      12.35192051
Rh      11.07834466      10.51627164      10.09525488
Rh       8.61769507       8.36305296      13.00300388
Rh      10.74440744       7.41365986       8.47075156
Rh       7.00118389      11.75308460      11.06755563
Rh      14.09178964      13.39825799      12.87416798
Rh      15.35119728      12.91908015      10.73061227
Rh       8.48797835      13.27939787       9.58804239
Rh      13.64758483      11.28769873       9.94246500
28
Properties=species:S:1:pos:R:3 Energy=-158.00423465 eV=T pbc="F F F"
Rh       8.29966435      11.23326914      12.96820022
Rh       7.36246762       7.50905903      11.10884229
Rh      12.17778630      11.26348325       8.05000135
Rh      12.43685390      11.72268443      12.42328841
Rh      13.17795032       9.45916285      11.15972494
Rh      10.94841867       9.69425179      12.57804365
Rh      11.22297826      13.17400372       9.57181265
Rh       7.99299418      10.86368152       8.54534444
Rh       8.55069833       9.92737940      10.74864423
Rh       8.31293183       8.24534721       8.84298210
Rh      12.39451989       7.22414048      10.52243868
Rh      10.02023967       7.76496306      10.86188168
Rh      10.17068472       9.68030311       7.74054318
Rh      12.68427918      14.04801210      11.31822334
Rh      14.87515990      11.08824632      12.02357613
Rh      12.56790868       8.76963907       8.54085418
Rh       9.84703451      12.25604216       7.57903007
Rh       6.19233067       9.43918808       9.68264089
Rh      10.10838151      11.92246332      11.39930019
Rh       6.36526181       9.59492067      12.34389583
Rh      11.01295478      10.04092906       9.99649249
Rh       8.68733467       8.64935948      12.96169406
Rh      10.57444064       7.21785014       8.42874429
Rh       6.83775913      11.76599571      10.84700218
Rh      14.19755189      13.24230585      13.23990773
Rh      15.10614875      13.45207966      10.92985925
Rh       8.60188376      13.07304541       9.66756513
Rh      13.42461766      11.82942956      10.07070198
28
Properties=species:S:1:pos:R:3 Energy=-157.74191255 eV=T pbc="F F F"
Rh       9.12065606      13.06638795      14.78522964
Rh      11.70031776      10.88159825       7.55642286
Rh       9.25160256      15.04106222      10.47453495
Rh       9.86284179      10.00409215       6.33890495
Rh       9.57859298      12.71314150      10.02552053
Rh      15.33872898       9.32351055      12.95094304
Rh      15.12006045      11.50231167      11.77574490
Rh      10.97110616      11.25214103      14.73429915
Rh      15.32499015      11.51800193      14.29235773
Rh      12.66500471      11.88841429      12.27321094
Rh      13.20267123      12.37895783      15.39969843
Rh      13.94316166      13.56597883      10.65897343
Rh      11.64938474      13.82368918      13.96280509
Rh      13.60294795      10.39743977       8.91594741
Rh      11.02050377       9.87153615      12.49723402
Rh      10.02456871      12.32332932      12.45419660
Rh       9.00593021      10.43205759      10.98016578
Rh      11.52237162      14.16332451      11.39914616
Rh      11.23884973       9.81522787       9.92482203
Rh       8.80400750      10.52238686      13.65865633
Rh      13.35740004       9.61129675      11.39940400
Rh      11.04356409      13.23703133      16.36499498
Rh       9.49967953      14.71630791      12.87512614
Rh      13.19351490      10.15901627      14.04404025
Rh      11.96699018      12.15988089       9.76330266
Rh      14.13479153      13.58093066      13.32658145
Rh       9.27457258      10.80201380       8.50807941
Rh      15.29902753      11.96677205       9.37749621
28
Properties=species:S:1:pos:R:3 Energy=-157.40271775 eV=T pbc="F F F"
Rh       8.60759899      11.79339842      12.69926481
Rh      10.22298407      10.41658853       9.19526575
Rh       9.89484492       8.40025369       7.87299589
Rh      11.41718583       8.06233174      10.12948923
Rh       8.50439172       9.81591202       6.24105761
Rh      14.62663743      13.03405771      16.02522867
Rh      11.05700778       9.66366204       5.97224884
Rh       7.44306873       9.01579167       8.50686406
Rh      12.61769836      12.83267005       9.82343953
Rh      12.00498233      11.24288217       7.66968818
Rh      12.49569333       8.69072802       7.92604777
Rh      12.13838044       9.95382143      14.14797123
Rh       8.89483540       8.12501333      10.37670546
Rh       8.08156737       9.06940778      12.62268411
Rh       9.63931270       9.99786127      14.30059083
Rh      13.17749317      12.04438583      14.68665067
Rh      10.86833062      12.26088178      13.87703460
Rh      12.63429357      10.34451230       9.98714351
Rh       8.24686430      13.00608571      10.32955178
Rh       8.08024585      10.53208628      10.52970939
Rh       8.20977845      11.44329027       8.12033693
Rh      10.38091488       7.93011806      12.55378317
Rh      10.56017616      10.30561329      11.81699537
Rh      12.80275687      11.68823819      12.20466203
Rh      10.29435273      12.89405365       8.84725356
Rh      10.57704418      12.82342781      11.37881466
Rh       9.94747725      11.98522593       6.35518858
Rh      12.81700782       8.87062629      12.04625902
28
Properties=species:S:1:pos:R:3 Energy=-160.15027033 eV=T pbc="F F F"
Rh       8.59964772       8.76490834      14.82582175
Rh       9.78278198       7.93766376      12.74429213
Rh       8.46506844      11.00966222      13.49357923
Rh       7.38924427       8.80495810      12.61419561
Rh      10.75409606       9.89671532      14.16856519
Rh       8.83230605       8.45728773      10.42623290
Rh       8.91363285      12.90096578      11.73413280
Rh       7.54204103      10.74804352      11.01074061
Rh       7.82560806       9.87371256       8.54339755
Rh      12.29585813       8.11311463      13.18565315
Rh      10.81180437      12.22126558      13.21233282
Rh       9.97987527      10.38893686      11.57055596
Rh       9.16063163      11.82277858       9.35968055
Rh      10.77780404      14.56689251      12.40864549
Rh      13.96174130       8.75631319      11.15317532
Rh       9.75039229      11.24818023       6.95302455
Rh      11.47323186       8.40317868      10.79598202
Rh      12.50729713      10.47648828      12.26800694
Rh      11.71520961      11.34915748       9.83678612
Rh      10.76652948      13.72910427      10.07722005
Rh      12.66391163      12.97488714      11.57425589
Rh       9.91136006      13.66575011       7.78593394
Rh      14.16202739      11.22062453      10.23325116
Rh      10.34343090       9.43103340       8.62919285
Rh      11.98649539       9.98749889       6.68464202
Rh      12.96056657       9.31922546       8.88952631
Rh      12.01866655      12.30433946       7.64497311
Rh      14.22170827      11.20028175       7.74917234
28
Properties=species:S:1:pos:R:3 Energy=-160.13836239 eV=T pbc="F F F"
Rh      11.09748377      11.14698428       7.47665518
Rh      13.09421079      10.94370293       8.99203119
Rh      12.01757563      13.30302145       8.69431254
Rh      14.06055671      13.08155095      10.36444723
Rh      15.18714487      10.57420540      10.35699319
Rh      11.14532955       9.19640868       9.41669638
Rh       9.24954611      12.85754608       7.95905437
Rh      13.48504585       8.68179136      10.21319948
Rh       8.94046961      10.33472641       8.70523501
Rh      15.23366028      11.96100160      12.50448957
Rh      10.71197966      11.64697387      10.06846814
Rh       9.86665122      14.16519344       9.96507251
Rh      11.78803575      13.62547431      11.46694803
Rh      12.90828779      11.24151582      11.50747050
Rh      13.73704789      13.92725190      12.99524406
Rh      14.25078644       9.44158627      12.67234045
Rh       8.23325171      12.18477155      10.37039495
Rh       9.28177570      13.56814121      12.34839406
Rh      13.18734027      11.55307534      13.95463360
Rh      11.70392774       9.06086561      11.96613782
Rh      10.62243182      11.44720669      12.70460833
Rh      11.42337058      13.48990946      14.03214107
Rh       9.30653587       9.78057105      11.18266381
Rh      12.34775429       9.18775689      14.42884239
Rh       8.02940083      11.31336170      12.78529038
Rh      11.04581193      11.18231957      15.27458481
Rh       9.05091624      12.61480764      14.72092829
Rh       9.83894063       9.33354806      13.71799218
28
Properties=species:S:1:pos:R:3 Energy=-160.11208254 eV=T pbc="F F F"
Rh      11.33169706      13.32064245       7.63652684
Rh      13.41427527      13.30220421       9.21264553
Rh      12.63023953      11.22373096       7.86817594
Rh      11.13435633      13.95644977      10.11264927
Rh      10.19147146       9.68245632       8.71558838
Rh       9.41001728      12.36945023       9.07934834
Rh      12.61234660       9.09934725       9.30854060
Rh      11.45732586      11.37249459      10.05809644
Rh       8.90456322      10.44506003      10.77091768
Rh      14.31441068      10.98065188       9.86763209
Rh      15.35378360      13.17038023      10.83546934
Rh      13.33253015      14.89883122      11.24132569
Rh      13.08404636       9.72563138      11.74693675
Rh      10.79343778       8.77048288      11.18972487
Rh       7.69896118      11.32519354      12.85986673
Rh      10.97238731      11.02531383      12.57655692
Rh      15.21389538      10.99518357      12.32563855
Rh       8.88870572       9.02450596      12.90541588
Rh       9.40029170      12.81579890      11.63288788
Rh      13.60315935      13.74670073      13.76537032
Rh      13.14644886      12.38911486      11.78258680
Rh      11.33250608      14.22437123      12.64257702
Rh      11.49492027       8.93228086      13.73821239
Rh      13.37106553      10.87078050      14.06961643
Rh       9.15136159      13.38205662      13.99306078
Rh       9.50025805      10.91296502      14.56661394
Rh      11.50647827      12.53148369      14.51639265
Rh      11.60685189      10.35822964      15.83341831
28
Properties=species:S:1:pos:R:3 Energy=-160.10706381 eV=T pbc="F F F"
Rh       7.07470388       9.50275443      13.82470293
Rh       6.42010361      10.91220621      11.75543828
Rh       9.61495701       9.17891881      13.62121564
Rh       8.48204445      11.47224380      13.20074744
Rh       8.12306688       8.87727006      11.59665849
Rh       7.97026145      13.30729509      11.52672953
Rh      12.23549194       9.05635778      13.21648902
Rh      10.87647887      11.03288627      12.38136681
Rh      10.12166324      13.36307709      13.00195742
Rh       6.71882405       9.63496707       9.54280720
Rh      10.65423716       8.36202607      11.38832447
Rh       9.12389183       8.63314626       9.24402081
Rh       8.63347416      11.09830751      10.47298031
Rh      12.51115323      12.96842943      11.89769367
Rh      14.03026979       7.24774858       8.82379497
Rh       8.38175577      10.72626574       7.91178413
Rh      11.54141016       7.84974439       9.00441971
Rh      13.15778911       8.06726560      11.03581802
Rh      11.08751155      10.34951123       9.82784444
Rh      10.43052842      12.96104502      10.46637788
Rh      13.23041146      10.60279066      11.41119577
Rh       8.39722565      13.13143908       8.93211213
Rh      13.53754396       9.72902067       9.01728769
Rh      10.61659382       9.67442956       7.35994362
Rh      10.56699014      12.17285772       7.99156172
Rh      12.83492077       8.53805384       6.89068588
Rh      12.76749296      12.25574067       9.42454240
Rh      12.70691537      11.14191207       7.07921029
28
Properties=species:S:1:pos:R:3 Energy=-160.09999571 eV=T pbc="F F F"
Rh      15.56965345      12.05292858      11.33445102
Rh      12.13201683      10.48943540       8.03967189
Rh       8.06517201      11.28082162      10.77529305
Rh      10.08230335      11.27195218      14.71003426
Rh      14.42211862      10.20675517      12.41342787
Rh       9.95461176      10.31741951       9.60419106
Rh       9.92254850      12.05781557       7.85539522
Rh       7.71395528       9.70005970       8.69192134
Rh      12.48343574      10.68346308      13.88596292
Rh      12.39787569       8.33197839      12.12960191
Rh      11.70434878      13.10128705      13.89436011
Rh      10.65409354       8.84071475      13.91419750
Rh       8.99391995       7.53269606       9.18409437
Rh      11.09681352      10.57827519      11.86162570
Rh       9.70456943      12.50036364      12.43179823
Rh       9.85625703       8.36336412      11.37711744
Rh      13.07710851       9.99309396      10.36445072
Rh      13.13225143      12.41976363      11.92301048
Rh      11.63014563      12.30761299       9.75566302
Rh       9.34236961      13.37720884      10.02648596
Rh       7.51614130      12.30146279       8.49785195
Rh      11.34828257      14.15573514      11.48998818
Rh      11.54433573       8.23934549       9.41749690
Rh       7.39319465       8.78721046      11.02095929
Rh       8.67362549      10.10641135      12.90183761
Rh      14.08640947      12.04531151       9.41686219
Rh       8.30595808      10.71278264       6.51732910
Rh      10.01127572       9.05952283       7.37971237
28
Properties=species:S:1:pos:R:3 Energy=-160.02657391 eV=T pbc="F F F"
Rh      12.05430106      14.51442454      13.10912265
Rh      13.39526608      12.50892397      14.03602823
Rh      14.24852424      13.69854092      11.93552266
Rh       9.79641166      14.13249880      11.99016348
Rh      11.04313333      12.16630637      13.03638719
Rh      11.95648082      13.40431174      10.78245197
Rh       7.56247229      13.84787475      10.89332710
Rh      12.36387033      10.10401326      13.87833486
Rh       8.64488375      11.79125594      12.00109635
Rh      13.29715885      11.29975715      11.76462288
Rh      14.03026571      12.46592814       9.60572796
Rh       9.61645600      12.99459167       9.65237927
Rh      10.02592521       9.76547273      12.87041992
Rh      10.93487780      10.93952638      10.66851536
Rh       7.47700131      11.61712367       9.68812971
Rh      11.35686804       7.74778429      13.68495005
Rh       9.53407054      10.63761848       8.35704491
Rh      12.35084659       8.86063254      11.61822021
Rh      11.15497138       8.67689180       9.37153761
Rh      13.22990214      10.08944507       9.41277693
Rh      11.70040831      12.14128041       8.49796671
Rh       8.66723983       9.58248832      10.68024163
Rh       7.26611994       9.37863925       8.51494362
Rh      10.08987524       7.53774800      11.45886362
Rh      11.72142169       9.89348740       7.28200903
Rh       9.40429052       8.12571108       7.68308264
Rh       8.13867664       7.28008071       9.72749813
Rh      10.42254156       6.28190348       9.28289620
